ATOMIC_SPECIES
H   1.008         H_ONCV_PBE-1.0.upf
C   12.011        C_ONCV_PBE-1.0.upf
N   14.007        N_ONCV_PBE-1.0.upf
O   15.999        O_ONCV_PBE-1.0.upf

NUMERICAL_ORBITAL
H_gga_6au_100Ry_2s1p.orb
C_gga_7au_100Ry_2s2p1d.orb
N_gga_7au_100Ry_2s2p1d.orb
O_gga_7au_100Ry_2s2p1d.orb

LATTICE_CONSTANT
1.8897261258369282

LATTICE_VECTORS
4.20203877000000      0.00000000000000      0.00000000000000      
0.00000000000000      4.16474724000000      0.00000000000000      
0.00000000000000      0.00000000000000      5.87899733000000      

ATOMIC_POSITIONS
Direct

H
0.00000000000000
8
0.94384120830000 0.43304868844800 0.47952938430700 1 1 1 v 0.0 0.0 0.0 mag 0.0 
0.51401798703500 0.58686224617100 0.22136149192600 1 1 1 v 0.0 0.0 0.0 mag 0.0 
0.00934076817200 0.61736363861500 0.22527619348300 1 1 1 v 0.0 0.0 0.0 mag 0.0 
0.39399755228800 0.34992210475700 0.49281971693000 1 1 1 v 0.0 0.0 0.0 mag 0.0 
0.92710555833400 0.38146134169700 0.99379757670300 1 1 1 v 0.0 0.0 0.0 mag 0.0 
0.49245633923600 0.58233754421100 0.72810253172900 1 1 1 v 0.0 0.0 0.0 mag 0.0 
0.36270884049900 0.35101130170900 0.98108335422600 1 1 1 v 0.0 0.0 0.0 mag 0.0 
0.04156702961600 0.65332710323100 0.75156143505200 1 1 1 v 0.0 0.0 0.0 mag 0.0 

C
0.00000000000000
8
0.08937871127700 0.13182234559800 0.23887665552000 1 1 1 v 0.0 0.0 0.0 mag 0.0 
0.82809348520100 0.85617776170300 0.48959485579500 1 1 1 v 0.0 0.0 0.0 mag 0.0 
0.59641696261600 0.14402484122900 0.24300053220100 1 1 1 v 0.0 0.0 0.0 mag 0.0 
0.59004788525500 0.14466075497100 0.74129564539200 1 1 1 v 0.0 0.0 0.0 mag 0.0 
0.34151788894600 0.86006965695200 0.98333876943600 1 1 1 v 0.0 0.0 0.0 mag 0.0 
0.08973668988800 0.14392480634700 0.73933142439400 1 1 1 v 0.0 0.0 0.0 mag 0.0 
0.32981818728000 0.85382134499000 0.48517585736000 1 1 1 v 0.0 0.0 0.0 mag 0.0 
0.83352466783600 0.85494717081600 0.98901764597300 1 1 1 v 0.0 0.0 0.0 mag 0.0 

N
0.00000000000000
8
0.33266834422900 0.12884398477900 0.87017158587500 1 1 1 v 0.0 0.0 0.0 mag 0.0 
0.59035864869000 0.87128254390800 0.62136986546300 1 1 1 v 0.0 0.0 0.0 mag 0.0 
0.83755634648700 0.12131058402500 0.87223146093900 1 1 1 v 0.0 0.0 0.0 mag 0.0 
0.09254163307000 0.87196749543900 0.11986669672500 1 1 1 v 0.0 0.0 0.0 mag 0.0 
0.84836172037500 0.12388268729600 0.36886487750800 1 1 1 v 0.0 0.0 0.0 mag 0.0 
0.59215770158200 0.88337921799100 0.11416904487700 1 1 1 v 0.0 0.0 0.0 mag 0.0 
0.34315142694400 0.13072468954900 0.36607262755800 1 1 1 v 0.0 0.0 0.0 mag 0.0 
0.07627184506000 0.87659174725800 0.61538914834000 1 1 1 v 0.0 0.0 0.0 mag 0.0 

O
0.00000000000000
8
0.10540210460700 0.39819911616100 0.61843948141400 1 1 1 v 0.0 0.0 0.0 mag 0.0 
0.82691383639900 0.60741454504200 0.36372451286700 1 1 1 v 0.0 0.0 0.0 mag 0.0 
0.82453228769200 0.59764597863100 0.87670615424500 1 1 1 v 0.0 0.0 0.0 mag 0.0 
0.32000599556600 0.62338416004300 0.86802449696000 1 1 1 v 0.0 0.0 0.0 mag 0.0 
0.09582809727400 0.38163583488000 0.11801807877300 1 1 1 v 0.0 0.0 0.0 mag 0.0 
0.33816613262700 0.61274880633600 0.36142309661500 1 1 1 v 0.0 0.0 0.0 mag 0.0 
0.59583920973700 0.39330054277200 0.11516967469000 1 1 1 v 0.0 0.0 0.0 mag 0.0 
0.60294600280400 0.38941737074100 0.62370753279500 1 1 1 v 0.0 0.0 0.0 mag 0.0 

