ATOMIC_SPECIES
H   1.008         H_ONCV_PBE-1.0.upf
C   12.011        C_ONCV_PBE-1.0.upf
N   14.007        N_ONCV_PBE-1.0.upf
O   15.999        O_ONCV_PBE-1.0.upf

NUMERICAL_ORBITAL
H_gga_6au_100Ry_2s1p.orb
C_gga_7au_100Ry_2s2p1d.orb
N_gga_7au_100Ry_2s2p1d.orb
O_gga_7au_100Ry_2s2p1d.orb

LATTICE_CONSTANT
1.8897261258369282

LATTICE_VECTORS
4.20203877000000      0.00000000000000      0.00000000000000      
0.00000000000000      4.16474724000000      0.00000000000000      
0.00000000000000      0.00000000000000      5.87899733000000      

ATOMIC_POSITIONS
Direct

H
0.00000000000000
8
0.87316614644200 0.41913023754100 0.52886407927700 1 1 1 v 0.0 0.0 0.0 mag 0.0 
0.48276270901700 0.59156997724500 0.24313834651800 1 1 1 v 0.0 0.0 0.0 mag 0.0 
0.98563030155000 0.54825885664100 0.23700602531100 1 1 1 v 0.0 0.0 0.0 mag 0.0 
0.37128332350000 0.39276695216700 0.46609495398400 1 1 1 v 0.0 0.0 0.0 mag 0.0 
0.86718742959100 0.37634149437600 0.96438825904300 1 1 1 v 0.0 0.0 0.0 mag 0.0 
0.58290199212000 0.63769749926000 0.71039562965700 1 1 1 v 0.0 0.0 0.0 mag 0.0 
0.42234146259400 0.43099656151000 0.99147427066400 1 1 1 v 0.0 0.0 0.0 mag 0.0 
0.07594304514200 0.58099044445300 0.76457733822400 1 1 1 v 0.0 0.0 0.0 mag 0.0 

C
0.00000000000000
8
0.09457074333500 0.13947412808700 0.23533018001900 1 1 1 v 0.0 0.0 0.0 mag 0.0 
0.84184853677600 0.86391970812600 0.48463749855100 1 1 1 v 0.0 0.0 0.0 mag 0.0 
0.59883804451400 0.13805159517900 0.23864831726300 1 1 1 v 0.0 0.0 0.0 mag 0.0 
0.58629603267600 0.14287423598800 0.73621731173700 1 1 1 v 0.0 0.0 0.0 mag 0.0 
0.34756951088300 0.86393421080700 0.98138248346500 1 1 1 v 0.0 0.0 0.0 mag 0.0 
0.09288305067200 0.13811589199800 0.74263165382300 1 1 1 v 0.0 0.0 0.0 mag 0.0 
0.32402777426100 0.85820336122000 0.49047361618700 1 1 1 v 0.0 0.0 0.0 mag 0.0 
0.83913198878000 0.86116891213800 0.99059120511600 1 1 1 v 0.0 0.0 0.0 mag 0.0 

N
0.00000000000000
8
0.33058356812800 0.13591126841100 0.86958239356800 1 1 1 v 0.0 0.0 0.0 mag 0.0 
0.58670337303900 0.87371613697300 0.61528918231400 1 1 1 v 0.0 0.0 0.0 mag 0.0 
0.82950083299700 0.12942618097500 0.87795387551200 1 1 1 v 0.0 0.0 0.0 mag 0.0 
0.09466433361800 0.87760857247100 0.11789487579200 1 1 1 v 0.0 0.0 0.0 mag 0.0 
0.84752298465800 0.12439030513700 0.35897452771900 1 1 1 v 0.0 0.0 0.0 mag 0.0 
0.58268146345500 0.85262284728700 0.12100643699400 1 1 1 v 0.0 0.0 0.0 mag 0.0 
0.34339205299600 0.11967511862700 0.36600198626000 1 1 1 v 0.0 0.0 0.0 mag 0.0 
0.09235523069700 0.86879814343800 0.62423313772800 1 1 1 v 0.0 0.0 0.0 mag 0.0 

O
0.00000000000000
8
0.08176039508600 0.37383651162500 0.61859983528900 1 1 1 v 0.0 0.0 0.0 mag 0.0 
0.82670686543900 0.61774849270300 0.37484064140600 1 1 1 v 0.0 0.0 0.0 mag 0.0 
0.84322663210500 0.61335887457100 0.86291129171200 1 1 1 v 0.0 0.0 0.0 mag 0.0 
0.34530116436800 0.61873456695100 0.85732705035900 1 1 1 v 0.0 0.0 0.0 mag 0.0 
0.09975742084800 0.40241269960000 0.12380223516800 1 1 1 v 0.0 0.0 0.0 mag 0.0 
0.30923099027000 0.60809835844900 0.37766301213800 1 1 1 v 0.0 0.0 0.0 mag 0.0 
0.59782375116000 0.39015069495500 0.12338248161800 1 1 1 v 0.0 0.0 0.0 mag 0.0 
0.59229280504700 0.38837953584900 0.60948882928000 1 1 1 v 0.0 0.0 0.0 mag 0.0 

