ATOMIC_SPECIES
H   1.008         H_ONCV_PBE-1.0.upf
C   12.011        C_ONCV_PBE-1.0.upf
N   14.007        N_ONCV_PBE-1.0.upf
O   15.999        O_ONCV_PBE-1.0.upf

NUMERICAL_ORBITAL
H_gga_6au_100Ry_2s1p.orb
C_gga_7au_100Ry_2s2p1d.orb
N_gga_7au_100Ry_2s2p1d.orb
O_gga_7au_100Ry_2s2p1d.orb

LATTICE_CONSTANT
1.8897261258369282

LATTICE_VECTORS
4.20203877000000      0.00000000000000      0.00000000000000      
0.00000000000000      4.16474724000000      0.00000000000000      
0.00000000000000      0.00000000000000      5.87899733000000      

ATOMIC_POSITIONS
Direct

H
0.00000000000000
8
0.93664024903800 0.42118132480000 0.47335452693600 1 1 1 v 0.0 0.0 0.0 mag 0.0 
0.49916446392000 0.58571405164100 0.25016897907000 1 1 1 v 0.0 0.0 0.0 mag 0.0 
0.94889239682100 0.56959123166400 0.19618885419700 1 1 1 v 0.0 0.0 0.0 mag 0.0 
0.37025496316400 0.35309210265500 0.48306552811400 1 1 1 v 0.0 0.0 0.0 mag 0.0 
0.85464714310600 0.35009437211400 0.95126084195700 1 1 1 v 0.0 0.0 0.0 mag 0.0 
0.53759389992500 0.57491649121100 0.73240019995000 1 1 1 v 0.0 0.0 0.0 mag 0.0 
0.40407185962300 0.41755269882800 0.98664218478200 1 1 1 v 0.0 0.0 0.0 mag 0.0 
0.00742986481300 0.61295193511000 0.75506227011700 1 1 1 v 0.0 0.0 0.0 mag 0.0 

C
0.00000000000000
8
0.09461115943000 0.13151182255200 0.22330851101100 1 1 1 v 0.0 0.0 0.0 mag 0.0 
0.83339006650800 0.87081558879900 0.49034007470800 1 1 1 v 0.0 0.0 0.0 mag 0.0 
0.59082330170900 0.13224238069200 0.23600861883700 1 1 1 v 0.0 0.0 0.0 mag 0.0 
0.58093792885200 0.15018396410500 0.73539484155500 1 1 1 v 0.0 0.0 0.0 mag 0.0 
0.34169826329300 0.84362298058700 0.98727323626800 1 1 1 v 0.0 0.0 0.0 mag 0.0 
0.09659811396700 0.13366981425700 0.74728489798400 1 1 1 v 0.0 0.0 0.0 mag 0.0 
0.33835461970300 0.85644785492400 0.49616055362300 1 1 1 v 0.0 0.0 0.0 mag 0.0 
0.83501989440200 0.86310949569200 0.98485960870500 1 1 1 v 0.0 0.0 0.0 mag 0.0 

N
0.00000000000000
8
0.33682431016700 0.12017245253000 0.87618162432500 1 1 1 v 0.0 0.0 0.0 mag 0.0 
0.57843583865800 0.88443856679300 0.62654826550200 1 1 1 v 0.0 0.0 0.0 mag 0.0 
0.82930996850400 0.13348328673100 0.86215493824700 1 1 1 v 0.0 0.0 0.0 mag 0.0 
0.10070228838000 0.86233715830500 0.11697019770500 1 1 1 v 0.0 0.0 0.0 mag 0.0 
0.84984240638000 0.13419063337900 0.36242143692200 1 1 1 v 0.0 0.0 0.0 mag 0.0 
0.58934254431000 0.87356027637300 0.12422897120100 1 1 1 v 0.0 0.0 0.0 mag 0.0 
0.34947640666300 0.12708651437900 0.37225445720700 1 1 1 v 0.0 0.0 0.0 mag 0.0 
0.09105050451500 0.87976503707300 0.61834752015400 1 1 1 v 0.0 0.0 0.0 mag 0.0 

O
0.00000000000000
8
0.10311748265900 0.36366395431000 0.62174348699700 1 1 1 v 0.0 0.0 0.0 mag 0.0 
0.81714657525600 0.63022674816600 0.37092271140700 1 1 1 v 0.0 0.0 0.0 mag 0.0 
0.82689631871200 0.61437285207300 0.86724138042800 1 1 1 v 0.0 0.0 0.0 mag 0.0 
0.33540147465100 0.60548361393500 0.86328106735200 1 1 1 v 0.0 0.0 0.0 mag 0.0 
0.10253641234300 0.39363795820700 0.11511930555700 1 1 1 v 0.0 0.0 0.0 mag 0.0 
0.31006427149200 0.62497622784900 0.37626949730200 1 1 1 v 0.0 0.0 0.0 mag 0.0 
0.60038992691200 0.39733751285200 0.11649209406900 1 1 1 v 0.0 0.0 0.0 mag 0.0 
0.60192463431300 0.37818913831600 0.61415453304900 1 1 1 v 0.0 0.0 0.0 mag 0.0 

