ATOMIC_SPECIES
H   1.008         H_ONCV_PBE-1.0.upf
C   12.011        C_ONCV_PBE-1.0.upf
N   14.007        N_ONCV_PBE-1.0.upf
O   15.999        O_ONCV_PBE-1.0.upf

NUMERICAL_ORBITAL
H_gga_6au_100Ry_2s1p.orb
C_gga_7au_100Ry_2s2p1d.orb
N_gga_7au_100Ry_2s2p1d.orb
O_gga_7au_100Ry_2s2p1d.orb

LATTICE_CONSTANT
1.8897261258369282

LATTICE_VECTORS
4.20203877000000      0.00000000000000      0.00000000000000      
0.00000000000000      4.16474724000000      0.00000000000000      
0.00000000000000      0.00000000000000      5.87899733000000      

ATOMIC_POSITIONS
Direct

H
0.00000000000000
8
0.74390199879100 0.42201572357600 0.48227332670000 1 1 1 v 0.0 0.0 0.0 mag 0.0 
0.60210632230800 0.60175513076300 0.22198121495000 1 1 1 v 0.0 0.0 0.0 mag 0.0 
0.15339896304700 0.59698032238800 0.24596252198000 1 1 1 v 0.0 0.0 0.0 mag 0.0 
0.27252298769200 0.37022813898300 0.50511017667000 1 1 1 v 0.0 0.0 0.0 mag 0.0 
0.89030828004500 0.40276344357500 0.01682000083500 1 1 1 v 0.0 0.0 0.0 mag 0.0 
0.56606938207800 0.57720067304700 0.74819428434700 1 1 1 v 0.0 0.0 0.0 mag 0.0 
0.41584544209200 0.45946921139000 0.99525443397300 1 1 1 v 0.0 0.0 0.0 mag 0.0 
0.02197691526800 0.57999922703600 0.76168569207400 1 1 1 v 0.0 0.0 0.0 mag 0.0 

C
0.00000000000000
8
0.08026975438900 0.15069015568900 0.23700839986600 1 1 1 v 0.0 0.0 0.0 mag 0.0 
0.84600430519100 0.85715323506600 0.48384907329100 1 1 1 v 0.0 0.0 0.0 mag 0.0 
0.59121186547300 0.13336603111600 0.24654897062200 1 1 1 v 0.0 0.0 0.0 mag 0.0 
0.59606821048000 0.13012812753600 0.73869735708800 1 1 1 v 0.0 0.0 0.0 mag 0.0 
0.33400742992200 0.86669360035400 0.98266334643800 1 1 1 v 0.0 0.0 0.0 mag 0.0 
0.09715944386700 0.14557166499300 0.74091760303600 1 1 1 v 0.0 0.0 0.0 mag 0.0 
0.33794905704800 0.86004067320100 0.48801641826900 1 1 1 v 0.0 0.0 0.0 mag 0.0 
0.84571097139100 0.86663415376900 0.98948561692900 1 1 1 v 0.0 0.0 0.0 mag 0.0 

N
0.00000000000000
8
0.34194775884900 0.12663747632400 0.85797363850800 1 1 1 v 0.0 0.0 0.0 mag 0.0 
0.58782626605800 0.86976630543400 0.61294455461200 1 1 1 v 0.0 0.0 0.0 mag 0.0 
0.84678772490200 0.11926217880200 0.86317064546100 1 1 1 v 0.0 0.0 0.0 mag 0.0 
0.09172855632600 0.88186543584800 0.12229607867500 1 1 1 v 0.0 0.0 0.0 mag 0.0 
0.84163019514500 0.13685746508800 0.36949658556800 1 1 1 v 0.0 0.0 0.0 mag 0.0 
0.58965426918200 0.87341194324200 0.11588449726300 1 1 1 v 0.0 0.0 0.0 mag 0.0 
0.33515248837200 0.12519528556100 0.36897084115500 1 1 1 v 0.0 0.0 0.0 mag 0.0 
0.08662313698700 0.86654016247100 0.62696606293600 1 1 1 v 0.0 0.0 0.0 mag 0.0 

O
0.00000000000000
8
0.07055783542900 0.38235675738200 0.61792142368600 1 1 1 v 0.0 0.0 0.0 mag 0.0 
0.84497665403500 0.61649308878600 0.36280478290300 1 1 1 v 0.0 0.0 0.0 mag 0.0 
0.82844652811200 0.61134253371900 0.87681171476200 1 1 1 v 0.0 0.0 0.0 mag 0.0 
0.32963814610400 0.61197642092700 0.86193097488600 1 1 1 v 0.0 0.0 0.0 mag 0.0 
0.09369686753300 0.39341598555200 0.11790068800700 1 1 1 v 0.0 0.0 0.0 mag 0.0 
0.34516431889100 0.62111662987700 0.36745728033900 1 1 1 v 0.0 0.0 0.0 mag 0.0 
0.59125635816100 0.37799329449800 0.12651358016500 1 1 1 v 0.0 0.0 0.0 mag 0.0 
0.57742974132500 0.37733951892800 0.61830466420700 1 1 1 v 0.0 0.0 0.0 mag 0.0 

