ATOMIC_SPECIES
H   1.008         H_ONCV_PBE-1.0.upf
C   12.011        C_ONCV_PBE-1.0.upf
N   14.007        N_ONCV_PBE-1.0.upf
O   15.999        O_ONCV_PBE-1.0.upf

NUMERICAL_ORBITAL
H_gga_6au_100Ry_2s1p.orb
C_gga_7au_100Ry_2s2p1d.orb
N_gga_7au_100Ry_2s2p1d.orb
O_gga_7au_100Ry_2s2p1d.orb

LATTICE_CONSTANT
1.8897261258369282

LATTICE_VECTORS
4.20203877000000      0.00000000000000      0.00000000000000      
0.00000000000000      4.16474724000000      0.00000000000000      
0.00000000000000      0.00000000000000      5.87899733000000      

ATOMIC_POSITIONS
Direct

H
0.00000000000000
8
0.83954801778300 0.38709097505800 0.47282663079600 1 1 1 v 0.0 0.0 0.0 mag 0.0 
0.67464605520500 0.63668782934400 0.23129760121900 1 1 1 v 0.0 0.0 0.0 mag 0.0 
0.11078624341200 0.58070617269900 0.27090173044900 1 1 1 v 0.0 0.0 0.0 mag 0.0 
0.35931540917200 0.40715387808300 0.45438816350000 1 1 1 v 0.0 0.0 0.0 mag 0.0 
0.75850095500200 0.40698012924300 0.00435831631900 1 1 1 v 0.0 0.0 0.0 mag 0.0 
0.57689079103900 0.60500265557500 0.75120649697600 1 1 1 v 0.0 0.0 0.0 mag 0.0 
0.30005107020900 0.38897501016200 0.00574097386100 1 1 1 v 0.0 0.0 0.0 mag 0.0 
0.10256448919000 0.62701369843500 0.75151040424100 1 1 1 v 0.0 0.0 0.0 mag 0.0 

C
0.00000000000000
8
0.08725051101800 0.13971180397500 0.24076920613300 1 1 1 v 0.0 0.0 0.0 mag 0.0 
0.84269574219100 0.86320352060500 0.49616918264500 1 1 1 v 0.0 0.0 0.0 mag 0.0 
0.58328987050300 0.13117508663000 0.23311604735800 1 1 1 v 0.0 0.0 0.0 mag 0.0 
0.59205940405900 0.15135443849900 0.75465059787700 1 1 1 v 0.0 0.0 0.0 mag 0.0 
0.32584115353100 0.84534396618000 0.98120501953000 1 1 1 v 0.0 0.0 0.0 mag 0.0 
0.08673183660300 0.13300798297700 0.73137428181100 1 1 1 v 0.0 0.0 0.0 mag 0.0 
0.34730155048000 0.86488170408200 0.49768067678300 1 1 1 v 0.0 0.0 0.0 mag 0.0 
0.83657573440200 0.85149486526800 0.98238411515000 1 1 1 v 0.0 0.0 0.0 mag 0.0 

N
0.00000000000000
8
0.33499652598400 0.12907533615400 0.86666056710000 1 1 1 v 0.0 0.0 0.0 mag 0.0 
0.59144338642100 0.88013141945200 0.62456694805100 1 1 1 v 0.0 0.0 0.0 mag 0.0 
0.85169494283400 0.13852670684500 0.87170045882600 1 1 1 v 0.0 0.0 0.0 mag 0.0 
0.07390366129300 0.87803559718500 0.10959825525200 1 1 1 v 0.0 0.0 0.0 mag 0.0 
0.83440483582200 0.12220906352100 0.37272567361400 1 1 1 v 0.0 0.0 0.0 mag 0.0 
0.58148789284000 0.87377111269800 0.10148040159100 1 1 1 v 0.0 0.0 0.0 mag 0.0 
0.34325255166600 0.11944773628100 0.36785371698700 1 1 1 v 0.0 0.0 0.0 mag 0.0 
0.08428785153700 0.86722880690400 0.61871501819500 1 1 1 v 0.0 0.0 0.0 mag 0.0 

O
0.00000000000000
8
0.09974974362300 0.36911219611000 0.60637257339900 1 1 1 v 0.0 0.0 0.0 mag 0.0 
0.85517600543200 0.61342165389100 0.36873702407300 1 1 1 v 0.0 0.0 0.0 mag 0.0 
0.83992077969300 0.61558358821300 0.86801486606600 1 1 1 v 0.0 0.0 0.0 mag 0.0 
0.33940430302100 0.60936589035400 0.86909052738100 1 1 1 v 0.0 0.0 0.0 mag 0.0 
0.08279101146900 0.39086553065300 0.11896602613400 1 1 1 v 0.0 0.0 0.0 mag 0.0 
0.34772496637400 0.63414964169600 0.37013801297300 1 1 1 v 0.0 0.0 0.0 mag 0.0 
0.58516236393500 0.38535540034400 0.11939977016500 1 1 1 v 0.0 0.0 0.0 mag 0.0 
0.57035080854300 0.38715831407800 0.62735925753500 1 1 1 v 0.0 0.0 0.0 mag 0.0 

