ATOMIC_SPECIES
H   1.008         H_ONCV_PBE-1.0.upf
C   12.011        C_ONCV_PBE-1.0.upf
N   14.007        N_ONCV_PBE-1.0.upf
O   15.999        O_ONCV_PBE-1.0.upf

NUMERICAL_ORBITAL
H_gga_6au_100Ry_2s1p.orb
C_gga_7au_100Ry_2s2p1d.orb
N_gga_7au_100Ry_2s2p1d.orb
O_gga_7au_100Ry_2s2p1d.orb

LATTICE_CONSTANT
1.8897261258369282

LATTICE_VECTORS
4.20203877000000      0.00000000000000      0.00000000000000      
0.00000000000000      4.16474724000000      0.00000000000000      
0.00000000000000      0.00000000000000      5.87899733000000      

ATOMIC_POSITIONS
Direct

H
0.00000000000000
8
0.90672796672000 0.37602875751000 0.52865619518800 1 1 1 v 0.0 0.0 0.0 mag 0.0 
0.60020926698900 0.63128210873100 0.23381702913600 1 1 1 v 0.0 0.0 0.0 mag 0.0 
0.05198731900300 0.58711732767700 0.27947415822400 1 1 1 v 0.0 0.0 0.0 mag 0.0 
0.40551550170500 0.37515663015400 0.49412087928300 1 1 1 v 0.0 0.0 0.0 mag 0.0 
0.76622486279400 0.43771383110400 0.98837438662400 1 1 1 v 0.0 0.0 0.0 mag 0.0 
0.56345129105000 0.62173623530600 0.75297524246400 1 1 1 v 0.0 0.0 0.0 mag 0.0 
0.29612025450200 0.40968038675000 0.01360622322300 1 1 1 v 0.0 0.0 0.0 mag 0.0 
0.11200548489900 0.63151806782900 0.73775137264800 1 1 1 v 0.0 0.0 0.0 mag 0.0 

C
0.00000000000000
8
0.07485742212700 0.14896052611300 0.22511313506600 1 1 1 v 0.0 0.0 0.0 mag 0.0 
0.83971472257500 0.85572480024000 0.48723597566300 1 1 1 v 0.0 0.0 0.0 mag 0.0 
0.59111958407800 0.14220195029200 0.23842825933000 1 1 1 v 0.0 0.0 0.0 mag 0.0 
0.59153197675000 0.13537797314200 0.74354258466700 1 1 1 v 0.0 0.0 0.0 mag 0.0 
0.32448799371700 0.85791308670200 0.99376948177700 1 1 1 v 0.0 0.0 0.0 mag 0.0 
0.09928214679500 0.13283117993000 0.73535483983600 1 1 1 v 0.0 0.0 0.0 mag 0.0 
0.33779795420600 0.85739450060800 0.48282896226500 1 1 1 v 0.0 0.0 0.0 mag 0.0 
0.82016561689200 0.86587715224700 0.98561077591100 1 1 1 v 0.0 0.0 0.0 mag 0.0 

N
0.00000000000000
8
0.33433325747300 0.12228695780300 0.87228974808900 1 1 1 v 0.0 0.0 0.0 mag 0.0 
0.59199485682000 0.88015221303100 0.61789028742400 1 1 1 v 0.0 0.0 0.0 mag 0.0 
0.84510410883200 0.13582786839200 0.86599206024800 1 1 1 v 0.0 0.0 0.0 mag 0.0 
0.08692255592900 0.87076874802100 0.11867820834700 1 1 1 v 0.0 0.0 0.0 mag 0.0 
0.84996267419000 0.12725836394300 0.36162693239400 1 1 1 v 0.0 0.0 0.0 mag 0.0 
0.59062292992600 0.87656864621600 0.12752485805300 1 1 1 v 0.0 0.0 0.0 mag 0.0 
0.34223149254800 0.13187070387500 0.36453681975100 1 1 1 v 0.0 0.0 0.0 mag 0.0 
0.09624004016500 0.86427763380900 0.62269202289300 1 1 1 v 0.0 0.0 0.0 mag 0.0 

O
0.00000000000000
8
0.10895998705900 0.38432848808400 0.62100054398200 1 1 1 v 0.0 0.0 0.0 mag 0.0 
0.83044490329600 0.60946829032500 0.37952210466500 1 1 1 v 0.0 0.0 0.0 mag 0.0 
0.83427910161800 0.61336602506500 0.86172155142000 1 1 1 v 0.0 0.0 0.0 mag 0.0 
0.34989836850100 0.61359284075100 0.86392546635200 1 1 1 v 0.0 0.0 0.0 mag 0.0 
0.07002804498200 0.39268844320100 0.11504076495300 1 1 1 v 0.0 0.0 0.0 mag 0.0 
0.34292237384600 0.62035956352500 0.36704556897600 1 1 1 v 0.0 0.0 0.0 mag 0.0 
0.57960126103300 0.37312799083600 0.11533191153900 1 1 1 v 0.0 0.0 0.0 mag 0.0 
0.58579950941300 0.38354604204000 0.62245751011400 1 1 1 v 0.0 0.0 0.0 mag 0.0 

